NAME : XML100_1175_27
DIMENSION : 101
NB_CLUSTERS : 27
CLUSTERING_ALG : DBSCAN
CLUSTERING_PARAMS : eps(61), minSamples(3)
CLUSTERS
1 0
2 2 3 6 27 44 52 59 84
3 5 36 56 86
4 8 9 10 31 38 96
5 11 21 50 100
6 7 15 18 83
7 20 32 37 60
8 13 29 64
9 19 33 69 91 99
10 24 30 34 51 89
11 12 40 74
12 53 73 81 88
13 55 61 77 79 85 98
14 1 16 26 39 45 62 76
15 58 72
16 35 41 65 70
17 43 47 95
18 28 42 67 97
19 63 82
20 4 75
21 25 46 49
22 66 92
23 71 87 93
24 22 23 54 68 90
25 48 78
26 80 94
27 14 17 57
EOF